\ Model min_vertex_cover
\ LP format - for model browsing. Use MPS format to capture full model detail.
Minimize
  x[0] + x[1] + x[2] + x[3] + x[4] + x[5] + x[6] + x[7] + x[8] + x[9]
   + x[10] + x[11] + x[12] + x[13] + x[14] + x[15] + x[16] + x[17] + x[18]
   + x[19] + x[20] + x[21] + x[22] + x[23] + x[24] + x[25] + x[26] + x[27]
   + x[28] + x[29] + x[30] + x[31] + x[32] + x[33] + x[34] + x[35] + x[36]
   + x[37] + x[38] + x[39] + x[40] + x[41] + x[42] + x[43] + x[44] + x[45]
   + x[46] + x[47] + x[48] + x[49] + x[50] + x[51] + x[52] + x[53] + x[54]
   + x[55] + x[56] + x[57] + x[58] + x[59]
Subject To
 _Edge_(0_2): x[0] + x[2] >= 1
 _Edge_(2_3): x[2] + x[3] >= 1
 _Edge_(2_4): x[2] + x[4] >= 1
 _Edge_(1_5): x[1] + x[5] >= 1
 _Edge_(3_5): x[3] + x[5] >= 1
 _Edge_(0_6): x[0] + x[6] >= 1
 _Edge_(4_7): x[4] + x[7] >= 1
 _Edge_(5_7): x[5] + x[7] >= 1
 _Edge_(0_8): x[0] + x[8] >= 1
 _Edge_(2_8): x[2] + x[8] >= 1
 _Edge_(4_8): x[4] + x[8] >= 1
 _Edge_(0_9): x[0] + x[9] >= 1
 _Edge_(1_9): x[1] + x[9] >= 1
 _Edge_(0_10): x[0] + x[10] >= 1
 _Edge_(3_10): x[3] + x[10] >= 1
 _Edge_(6_10): x[6] + x[10] >= 1
 _Edge_(1_11): x[1] + x[11] >= 1
 _Edge_(3_11): x[3] + x[11] >= 1
 _Edge_(4_11): x[4] + x[11] >= 1
 _Edge_(6_11): x[6] + x[11] >= 1
 _Edge_(8_11): x[8] + x[11] >= 1
 _Edge_(9_11): x[9] + x[11] >= 1
 _Edge_(10_11): x[10] + x[11] >= 1
 _Edge_(3_12): x[3] + x[12] >= 1
 _Edge_(4_12): x[4] + x[12] >= 1
 _Edge_(3_13): x[3] + x[13] >= 1
 _Edge_(4_13): x[4] + x[13] >= 1
 _Edge_(6_13): x[6] + x[13] >= 1
 _Edge_(1_14): x[1] + x[14] >= 1
 _Edge_(5_14): x[5] + x[14] >= 1
 _Edge_(8_14): x[8] + x[14] >= 1
 _Edge_(9_14): x[9] + x[14] >= 1
 _Edge_(10_14): x[10] + x[14] >= 1
 _Edge_(1_15): x[1] + x[15] >= 1
 _Edge_(9_15): x[9] + x[15] >= 1
 _Edge_(10_15): x[10] + x[15] >= 1
 _Edge_(11_15): x[11] + x[15] >= 1
 _Edge_(12_15): x[12] + x[15] >= 1
 _Edge_(14_15): x[14] + x[15] >= 1
 _Edge_(0_16): x[0] + x[16] >= 1
 _Edge_(1_16): x[1] + x[16] >= 1
 _Edge_(5_16): x[5] + x[16] >= 1
 _Edge_(8_16): x[8] + x[16] >= 1
 _Edge_(3_17): x[3] + x[17] >= 1
 _Edge_(6_17): x[6] + x[17] >= 1
 _Edge_(7_17): x[7] + x[17] >= 1
 _Edge_(8_17): x[8] + x[17] >= 1
 _Edge_(13_17): x[13] + x[17] >= 1
 _Edge_(14_17): x[14] + x[17] >= 1
 _Edge_(1_18): x[1] + x[18] >= 1
 _Edge_(3_18): x[3] + x[18] >= 1
 _Edge_(7_18): x[7] + x[18] >= 1
 _Edge_(10_18): x[10] + x[18] >= 1
 _Edge_(11_18): x[11] + x[18] >= 1
 _Edge_(12_18): x[12] + x[18] >= 1
 _Edge_(16_18): x[16] + x[18] >= 1
 _Edge_(17_18): x[17] + x[18] >= 1
 _Edge_(0_19): x[0] + x[19] >= 1
 _Edge_(1_19): x[1] + x[19] >= 1
 _Edge_(4_19): x[4] + x[19] >= 1
 _Edge_(8_19): x[8] + x[19] >= 1
 _Edge_(17_19): x[17] + x[19] >= 1
 _Edge_(1_20): x[1] + x[20] >= 1
 _Edge_(3_20): x[3] + x[20] >= 1
 _Edge_(7_20): x[7] + x[20] >= 1
 _Edge_(8_20): x[8] + x[20] >= 1
 _Edge_(11_20): x[11] + x[20] >= 1
 _Edge_(12_20): x[12] + x[20] >= 1
 _Edge_(13_20): x[13] + x[20] >= 1
 _Edge_(18_20): x[18] + x[20] >= 1
 _Edge_(0_21): x[0] + x[21] >= 1
 _Edge_(4_21): x[4] + x[21] >= 1
 _Edge_(9_21): x[9] + x[21] >= 1
 _Edge_(10_21): x[10] + x[21] >= 1
 _Edge_(14_21): x[14] + x[21] >= 1
 _Edge_(20_21): x[20] + x[21] >= 1
 _Edge_(1_22): x[1] + x[22] >= 1
 _Edge_(5_22): x[5] + x[22] >= 1
 _Edge_(13_22): x[13] + x[22] >= 1
 _Edge_(15_22): x[15] + x[22] >= 1
 _Edge_(16_22): x[16] + x[22] >= 1
 _Edge_(20_22): x[20] + x[22] >= 1
 _Edge_(21_22): x[21] + x[22] >= 1
 _Edge_(4_23): x[4] + x[23] >= 1
 _Edge_(5_23): x[5] + x[23] >= 1
 _Edge_(6_23): x[6] + x[23] >= 1
 _Edge_(7_23): x[7] + x[23] >= 1
 _Edge_(8_23): x[8] + x[23] >= 1
 _Edge_(10_23): x[10] + x[23] >= 1
 _Edge_(14_23): x[14] + x[23] >= 1
 _Edge_(17_23): x[17] + x[23] >= 1
 _Edge_(19_23): x[19] + x[23] >= 1
 _Edge_(11_24): x[11] + x[24] >= 1
 _Edge_(16_24): x[16] + x[24] >= 1
 _Edge_(18_24): x[18] + x[24] >= 1
 _Edge_(19_24): x[19] + x[24] >= 1
 _Edge_(21_24): x[21] + x[24] >= 1
 _Edge_(23_24): x[23] + x[24] >= 1
 _Edge_(0_25): x[0] + x[25] >= 1
 _Edge_(7_25): x[7] + x[25] >= 1
 _Edge_(10_25): x[10] + x[25] >= 1
 _Edge_(14_25): x[14] + x[25] >= 1
 _Edge_(16_25): x[16] + x[25] >= 1
 _Edge_(17_25): x[17] + x[25] >= 1
 _Edge_(19_25): x[19] + x[25] >= 1
 _Edge_(20_25): x[20] + x[25] >= 1
 _Edge_(21_25): x[21] + x[25] >= 1
 _Edge_(2_26): x[2] + x[26] >= 1
 _Edge_(4_26): x[4] + x[26] >= 1
 _Edge_(6_26): x[6] + x[26] >= 1
 _Edge_(9_26): x[9] + x[26] >= 1
 _Edge_(11_26): x[11] + x[26] >= 1
 _Edge_(13_26): x[13] + x[26] >= 1
 _Edge_(15_26): x[15] + x[26] >= 1
 _Edge_(19_26): x[19] + x[26] >= 1
 _Edge_(22_26): x[22] + x[26] >= 1
 _Edge_(23_26): x[23] + x[26] >= 1
 _Edge_(24_26): x[24] + x[26] >= 1
 _Edge_(0_27): x[0] + x[27] >= 1
 _Edge_(1_27): x[1] + x[27] >= 1
 _Edge_(2_27): x[2] + x[27] >= 1
 _Edge_(7_27): x[7] + x[27] >= 1
 _Edge_(12_27): x[12] + x[27] >= 1
 _Edge_(13_27): x[13] + x[27] >= 1
 _Edge_(18_27): x[18] + x[27] >= 1
 _Edge_(19_27): x[19] + x[27] >= 1
 _Edge_(20_27): x[20] + x[27] >= 1
 _Edge_(22_27): x[22] + x[27] >= 1
 _Edge_(4_28): x[4] + x[28] >= 1
 _Edge_(11_28): x[11] + x[28] >= 1
 _Edge_(14_28): x[14] + x[28] >= 1
 _Edge_(16_28): x[16] + x[28] >= 1
 _Edge_(20_28): x[20] + x[28] >= 1
 _Edge_(22_28): x[22] + x[28] >= 1
 _Edge_(26_28): x[26] + x[28] >= 1
 _Edge_(27_28): x[27] + x[28] >= 1
 _Edge_(1_29): x[1] + x[29] >= 1
 _Edge_(10_29): x[10] + x[29] >= 1
 _Edge_(19_29): x[19] + x[29] >= 1
 _Edge_(22_29): x[22] + x[29] >= 1
 _Edge_(26_29): x[26] + x[29] >= 1
 _Edge_(0_30): x[0] + x[30] >= 1
 _Edge_(4_30): x[4] + x[30] >= 1
 _Edge_(5_30): x[5] + x[30] >= 1
 _Edge_(8_30): x[8] + x[30] >= 1
 _Edge_(13_30): x[13] + x[30] >= 1
 _Edge_(15_30): x[15] + x[30] >= 1
 _Edge_(16_30): x[16] + x[30] >= 1
 _Edge_(18_30): x[18] + x[30] >= 1
 _Edge_(19_30): x[19] + x[30] >= 1
 _Edge_(26_30): x[26] + x[30] >= 1
 _Edge_(28_30): x[28] + x[30] >= 1
 _Edge_(29_30): x[29] + x[30] >= 1
 _Edge_(0_31): x[0] + x[31] >= 1
 _Edge_(1_31): x[1] + x[31] >= 1
 _Edge_(3_31): x[3] + x[31] >= 1
 _Edge_(7_31): x[7] + x[31] >= 1
 _Edge_(9_31): x[9] + x[31] >= 1
 _Edge_(11_31): x[11] + x[31] >= 1
 _Edge_(12_31): x[12] + x[31] >= 1
 _Edge_(13_31): x[13] + x[31] >= 1
 _Edge_(21_31): x[21] + x[31] >= 1
 _Edge_(22_31): x[22] + x[31] >= 1
 _Edge_(25_31): x[25] + x[31] >= 1
 _Edge_(1_32): x[1] + x[32] >= 1
 _Edge_(5_32): x[5] + x[32] >= 1
 _Edge_(11_32): x[11] + x[32] >= 1
 _Edge_(14_32): x[14] + x[32] >= 1
 _Edge_(15_32): x[15] + x[32] >= 1
 _Edge_(16_32): x[16] + x[32] >= 1
 _Edge_(17_32): x[17] + x[32] >= 1
 _Edge_(18_32): x[18] + x[32] >= 1
 _Edge_(21_32): x[21] + x[32] >= 1
 _Edge_(25_32): x[25] + x[32] >= 1
 _Edge_(8_33): x[8] + x[33] >= 1
 _Edge_(11_33): x[11] + x[33] >= 1
 _Edge_(12_33): x[12] + x[33] >= 1
 _Edge_(14_33): x[14] + x[33] >= 1
 _Edge_(15_33): x[15] + x[33] >= 1
 _Edge_(18_33): x[18] + x[33] >= 1
 _Edge_(26_33): x[26] + x[33] >= 1
 _Edge_(2_34): x[2] + x[34] >= 1
 _Edge_(9_34): x[9] + x[34] >= 1
 _Edge_(10_34): x[10] + x[34] >= 1
 _Edge_(16_34): x[16] + x[34] >= 1
 _Edge_(17_34): x[17] + x[34] >= 1
 _Edge_(18_34): x[18] + x[34] >= 1
 _Edge_(26_34): x[26] + x[34] >= 1
 _Edge_(29_34): x[29] + x[34] >= 1
 _Edge_(30_34): x[30] + x[34] >= 1
 _Edge_(32_34): x[32] + x[34] >= 1
 _Edge_(0_35): x[0] + x[35] >= 1
 _Edge_(2_35): x[2] + x[35] >= 1
 _Edge_(6_35): x[6] + x[35] >= 1
 _Edge_(7_35): x[7] + x[35] >= 1
 _Edge_(11_35): x[11] + x[35] >= 1
 _Edge_(18_35): x[18] + x[35] >= 1
 _Edge_(24_35): x[24] + x[35] >= 1
 _Edge_(29_35): x[29] + x[35] >= 1
 _Edge_(30_35): x[30] + x[35] >= 1
 _Edge_(31_35): x[31] + x[35] >= 1
 _Edge_(32_35): x[32] + x[35] >= 1
 _Edge_(34_35): x[34] + x[35] >= 1
 _Edge_(3_36): x[3] + x[36] >= 1
 _Edge_(5_36): x[5] + x[36] >= 1
 _Edge_(7_36): x[7] + x[36] >= 1
 _Edge_(10_36): x[10] + x[36] >= 1
 _Edge_(11_36): x[11] + x[36] >= 1
 _Edge_(16_36): x[16] + x[36] >= 1
 _Edge_(19_36): x[19] + x[36] >= 1
 _Edge_(20_36): x[20] + x[36] >= 1
 _Edge_(24_36): x[24] + x[36] >= 1
 _Edge_(25_36): x[25] + x[36] >= 1
 _Edge_(27_36): x[27] + x[36] >= 1
 _Edge_(34_36): x[34] + x[36] >= 1
 _Edge_(1_37): x[1] + x[37] >= 1
 _Edge_(3_37): x[3] + x[37] >= 1
 _Edge_(5_37): x[5] + x[37] >= 1
 _Edge_(8_37): x[8] + x[37] >= 1
 _Edge_(12_37): x[12] + x[37] >= 1
 _Edge_(13_37): x[13] + x[37] >= 1
 _Edge_(18_37): x[18] + x[37] >= 1
 _Edge_(22_37): x[22] + x[37] >= 1
 _Edge_(23_37): x[23] + x[37] >= 1
 _Edge_(24_37): x[24] + x[37] >= 1
 _Edge_(26_37): x[26] + x[37] >= 1
 _Edge_(29_37): x[29] + x[37] >= 1
 _Edge_(32_37): x[32] + x[37] >= 1
 _Edge_(34_37): x[34] + x[37] >= 1
 _Edge_(36_37): x[36] + x[37] >= 1
 _Edge_(3_38): x[3] + x[38] >= 1
 _Edge_(5_38): x[5] + x[38] >= 1
 _Edge_(6_38): x[6] + x[38] >= 1
 _Edge_(7_38): x[7] + x[38] >= 1
 _Edge_(12_38): x[12] + x[38] >= 1
 _Edge_(15_38): x[15] + x[38] >= 1
 _Edge_(16_38): x[16] + x[38] >= 1
 _Edge_(19_38): x[19] + x[38] >= 1
 _Edge_(21_38): x[21] + x[38] >= 1
 _Edge_(23_38): x[23] + x[38] >= 1
 _Edge_(26_38): x[26] + x[38] >= 1
 _Edge_(27_38): x[27] + x[38] >= 1
 _Edge_(35_38): x[35] + x[38] >= 1
 _Edge_(4_39): x[4] + x[39] >= 1
 _Edge_(7_39): x[7] + x[39] >= 1
 _Edge_(8_39): x[8] + x[39] >= 1
 _Edge_(12_39): x[12] + x[39] >= 1
 _Edge_(19_39): x[19] + x[39] >= 1
 _Edge_(23_39): x[23] + x[39] >= 1
 _Edge_(31_39): x[31] + x[39] >= 1
 _Edge_(34_39): x[34] + x[39] >= 1
 _Edge_(5_40): x[5] + x[40] >= 1
 _Edge_(6_40): x[6] + x[40] >= 1
 _Edge_(7_40): x[7] + x[40] >= 1
 _Edge_(8_40): x[8] + x[40] >= 1
 _Edge_(16_40): x[16] + x[40] >= 1
 _Edge_(18_40): x[18] + x[40] >= 1
 _Edge_(19_40): x[19] + x[40] >= 1
 _Edge_(20_40): x[20] + x[40] >= 1
 _Edge_(21_40): x[21] + x[40] >= 1
 _Edge_(22_40): x[22] + x[40] >= 1
 _Edge_(24_40): x[24] + x[40] >= 1
 _Edge_(27_40): x[27] + x[40] >= 1
 _Edge_(29_40): x[29] + x[40] >= 1
 _Edge_(34_40): x[34] + x[40] >= 1
 _Edge_(39_40): x[39] + x[40] >= 1
 _Edge_(0_41): x[0] + x[41] >= 1
 _Edge_(2_41): x[2] + x[41] >= 1
 _Edge_(6_41): x[6] + x[41] >= 1
 _Edge_(9_41): x[9] + x[41] >= 1
 _Edge_(13_41): x[13] + x[41] >= 1
 _Edge_(21_41): x[21] + x[41] >= 1
 _Edge_(23_41): x[23] + x[41] >= 1
 _Edge_(24_41): x[24] + x[41] >= 1
 _Edge_(25_41): x[25] + x[41] >= 1
 _Edge_(29_41): x[29] + x[41] >= 1
 _Edge_(31_41): x[31] + x[41] >= 1
 _Edge_(33_41): x[33] + x[41] >= 1
 _Edge_(37_41): x[37] + x[41] >= 1
 _Edge_(3_42): x[3] + x[42] >= 1
 _Edge_(8_42): x[8] + x[42] >= 1
 _Edge_(10_42): x[10] + x[42] >= 1
 _Edge_(15_42): x[15] + x[42] >= 1
 _Edge_(21_42): x[21] + x[42] >= 1
 _Edge_(22_42): x[22] + x[42] >= 1
 _Edge_(27_42): x[27] + x[42] >= 1
 _Edge_(28_42): x[28] + x[42] >= 1
 _Edge_(30_42): x[30] + x[42] >= 1
 _Edge_(31_42): x[31] + x[42] >= 1
 _Edge_(36_42): x[36] + x[42] >= 1
 _Edge_(38_42): x[38] + x[42] >= 1
 _Edge_(3_43): x[3] + x[43] >= 1
 _Edge_(5_43): x[5] + x[43] >= 1
 _Edge_(6_43): x[6] + x[43] >= 1
 _Edge_(7_43): x[7] + x[43] >= 1
 _Edge_(8_43): x[8] + x[43] >= 1
 _Edge_(14_43): x[14] + x[43] >= 1
 _Edge_(15_43): x[15] + x[43] >= 1
 _Edge_(16_43): x[16] + x[43] >= 1
 _Edge_(17_43): x[17] + x[43] >= 1
 _Edge_(18_43): x[18] + x[43] >= 1
 _Edge_(20_43): x[20] + x[43] >= 1
 _Edge_(27_43): x[27] + x[43] >= 1
 _Edge_(31_43): x[31] + x[43] >= 1
 _Edge_(34_43): x[34] + x[43] >= 1
 _Edge_(35_43): x[35] + x[43] >= 1
 _Edge_(36_43): x[36] + x[43] >= 1
 _Edge_(40_43): x[40] + x[43] >= 1
 _Edge_(3_44): x[3] + x[44] >= 1
 _Edge_(6_44): x[6] + x[44] >= 1
 _Edge_(11_44): x[11] + x[44] >= 1
 _Edge_(15_44): x[15] + x[44] >= 1
 _Edge_(23_44): x[23] + x[44] >= 1
 _Edge_(24_44): x[24] + x[44] >= 1
 _Edge_(26_44): x[26] + x[44] >= 1
 _Edge_(28_44): x[28] + x[44] >= 1
 _Edge_(29_44): x[29] + x[44] >= 1
 _Edge_(32_44): x[32] + x[44] >= 1
 _Edge_(35_44): x[35] + x[44] >= 1
 _Edge_(37_44): x[37] + x[44] >= 1
 _Edge_(38_44): x[38] + x[44] >= 1
 _Edge_(40_44): x[40] + x[44] >= 1
 _Edge_(0_45): x[0] + x[45] >= 1
 _Edge_(1_45): x[1] + x[45] >= 1
 _Edge_(8_45): x[8] + x[45] >= 1
 _Edge_(11_45): x[11] + x[45] >= 1
 _Edge_(13_45): x[13] + x[45] >= 1
 _Edge_(15_45): x[15] + x[45] >= 1
 _Edge_(19_45): x[19] + x[45] >= 1
 _Edge_(0_46): x[0] + x[46] >= 1
 _Edge_(1_46): x[1] + x[46] >= 1
 _Edge_(2_46): x[2] + x[46] >= 1
 _Edge_(4_46): x[4] + x[46] >= 1
 _Edge_(5_46): x[5] + x[46] >= 1
 _Edge_(8_46): x[8] + x[46] >= 1
 _Edge_(11_46): x[11] + x[46] >= 1
 _Edge_(14_46): x[14] + x[46] >= 1
 _Edge_(16_46): x[16] + x[46] >= 1
 _Edge_(19_46): x[19] + x[46] >= 1
 _Edge_(21_46): x[21] + x[46] >= 1
 _Edge_(24_46): x[24] + x[46] >= 1
 _Edge_(25_46): x[25] + x[46] >= 1
 _Edge_(27_46): x[27] + x[46] >= 1
 _Edge_(29_46): x[29] + x[46] >= 1
 _Edge_(34_46): x[34] + x[46] >= 1
 _Edge_(35_46): x[35] + x[46] >= 1
 _Edge_(39_46): x[39] + x[46] >= 1
 _Edge_(45_46): x[45] + x[46] >= 1
 _Edge_(1_47): x[1] + x[47] >= 1
 _Edge_(8_47): x[8] + x[47] >= 1
 _Edge_(10_47): x[10] + x[47] >= 1
 _Edge_(14_47): x[14] + x[47] >= 1
 _Edge_(19_47): x[19] + x[47] >= 1
 _Edge_(23_47): x[23] + x[47] >= 1
 _Edge_(27_47): x[27] + x[47] >= 1
 _Edge_(30_47): x[30] + x[47] >= 1
 _Edge_(32_47): x[32] + x[47] >= 1
 _Edge_(36_47): x[36] + x[47] >= 1
 _Edge_(40_47): x[40] + x[47] >= 1
 _Edge_(42_47): x[42] + x[47] >= 1
 _Edge_(2_48): x[2] + x[48] >= 1
 _Edge_(5_48): x[5] + x[48] >= 1
 _Edge_(11_48): x[11] + x[48] >= 1
 _Edge_(15_48): x[15] + x[48] >= 1
 _Edge_(17_48): x[17] + x[48] >= 1
 _Edge_(18_48): x[18] + x[48] >= 1
 _Edge_(20_48): x[20] + x[48] >= 1
 _Edge_(29_48): x[29] + x[48] >= 1
 _Edge_(33_48): x[33] + x[48] >= 1
 _Edge_(34_48): x[34] + x[48] >= 1
 _Edge_(38_48): x[38] + x[48] >= 1
 _Edge_(42_48): x[42] + x[48] >= 1
 _Edge_(43_48): x[43] + x[48] >= 1
 _Edge_(45_48): x[45] + x[48] >= 1
 _Edge_(1_49): x[1] + x[49] >= 1
 _Edge_(4_49): x[4] + x[49] >= 1
 _Edge_(5_49): x[5] + x[49] >= 1
 _Edge_(13_49): x[13] + x[49] >= 1
 _Edge_(14_49): x[14] + x[49] >= 1
 _Edge_(18_49): x[18] + x[49] >= 1
 _Edge_(19_49): x[19] + x[49] >= 1
 _Edge_(20_49): x[20] + x[49] >= 1
 _Edge_(23_49): x[23] + x[49] >= 1
 _Edge_(24_49): x[24] + x[49] >= 1
 _Edge_(31_49): x[31] + x[49] >= 1
 _Edge_(34_49): x[34] + x[49] >= 1
 _Edge_(35_49): x[35] + x[49] >= 1
 _Edge_(43_49): x[43] + x[49] >= 1
 _Edge_(44_49): x[44] + x[49] >= 1
 _Edge_(4_50): x[4] + x[50] >= 1
 _Edge_(9_50): x[9] + x[50] >= 1
 _Edge_(11_50): x[11] + x[50] >= 1
 _Edge_(14_50): x[14] + x[50] >= 1
 _Edge_(17_50): x[17] + x[50] >= 1
 _Edge_(25_50): x[25] + x[50] >= 1
 _Edge_(28_50): x[28] + x[50] >= 1
 _Edge_(37_50): x[37] + x[50] >= 1
 _Edge_(38_50): x[38] + x[50] >= 1
 _Edge_(39_50): x[39] + x[50] >= 1
 _Edge_(40_50): x[40] + x[50] >= 1
 _Edge_(41_50): x[41] + x[50] >= 1
 _Edge_(43_50): x[43] + x[50] >= 1
 _Edge_(49_50): x[49] + x[50] >= 1
 _Edge_(4_51): x[4] + x[51] >= 1
 _Edge_(7_51): x[7] + x[51] >= 1
 _Edge_(9_51): x[9] + x[51] >= 1
 _Edge_(11_51): x[11] + x[51] >= 1
 _Edge_(14_51): x[14] + x[51] >= 1
 _Edge_(15_51): x[15] + x[51] >= 1
 _Edge_(17_51): x[17] + x[51] >= 1
 _Edge_(23_51): x[23] + x[51] >= 1
 _Edge_(24_51): x[24] + x[51] >= 1
 _Edge_(26_51): x[26] + x[51] >= 1
 _Edge_(27_51): x[27] + x[51] >= 1
 _Edge_(28_51): x[28] + x[51] >= 1
 _Edge_(29_51): x[29] + x[51] >= 1
 _Edge_(30_51): x[30] + x[51] >= 1
 _Edge_(37_51): x[37] + x[51] >= 1
 _Edge_(38_51): x[38] + x[51] >= 1
 _Edge_(43_51): x[43] + x[51] >= 1
 _Edge_(44_51): x[44] + x[51] >= 1
 _Edge_(46_51): x[46] + x[51] >= 1
 _Edge_(0_52): x[0] + x[52] >= 1
 _Edge_(1_52): x[1] + x[52] >= 1
 _Edge_(5_52): x[5] + x[52] >= 1
 _Edge_(7_52): x[7] + x[52] >= 1
 _Edge_(9_52): x[9] + x[52] >= 1
 _Edge_(10_52): x[10] + x[52] >= 1
 _Edge_(16_52): x[16] + x[52] >= 1
 _Edge_(23_52): x[23] + x[52] >= 1
 _Edge_(25_52): x[25] + x[52] >= 1
 _Edge_(30_52): x[30] + x[52] >= 1
 _Edge_(32_52): x[32] + x[52] >= 1
 _Edge_(35_52): x[35] + x[52] >= 1
 _Edge_(36_52): x[36] + x[52] >= 1
 _Edge_(41_52): x[41] + x[52] >= 1
 _Edge_(51_52): x[51] + x[52] >= 1
 _Edge_(5_53): x[5] + x[53] >= 1
 _Edge_(6_53): x[6] + x[53] >= 1
 _Edge_(9_53): x[9] + x[53] >= 1
 _Edge_(10_53): x[10] + x[53] >= 1
 _Edge_(11_53): x[11] + x[53] >= 1
 _Edge_(15_53): x[15] + x[53] >= 1
 _Edge_(18_53): x[18] + x[53] >= 1
 _Edge_(19_53): x[19] + x[53] >= 1
 _Edge_(23_53): x[23] + x[53] >= 1
 _Edge_(32_53): x[32] + x[53] >= 1
 _Edge_(39_53): x[39] + x[53] >= 1
 _Edge_(41_53): x[41] + x[53] >= 1
 _Edge_(49_53): x[49] + x[53] >= 1
 _Edge_(0_54): x[0] + x[54] >= 1
 _Edge_(3_54): x[3] + x[54] >= 1
 _Edge_(4_54): x[4] + x[54] >= 1
 _Edge_(7_54): x[7] + x[54] >= 1
 _Edge_(19_54): x[19] + x[54] >= 1
 _Edge_(21_54): x[21] + x[54] >= 1
 _Edge_(28_54): x[28] + x[54] >= 1
 _Edge_(29_54): x[29] + x[54] >= 1
 _Edge_(33_54): x[33] + x[54] >= 1
 _Edge_(37_54): x[37] + x[54] >= 1
 _Edge_(40_54): x[40] + x[54] >= 1
 _Edge_(41_54): x[41] + x[54] >= 1
 _Edge_(43_54): x[43] + x[54] >= 1
 _Edge_(51_54): x[51] + x[54] >= 1
 _Edge_(52_54): x[52] + x[54] >= 1
 _Edge_(1_55): x[1] + x[55] >= 1
 _Edge_(13_55): x[13] + x[55] >= 1
 _Edge_(16_55): x[16] + x[55] >= 1
 _Edge_(18_55): x[18] + x[55] >= 1
 _Edge_(22_55): x[22] + x[55] >= 1
 _Edge_(30_55): x[30] + x[55] >= 1
 _Edge_(32_55): x[32] + x[55] >= 1
 _Edge_(41_55): x[41] + x[55] >= 1
 _Edge_(48_55): x[48] + x[55] >= 1
 _Edge_(50_55): x[50] + x[55] >= 1
 _Edge_(2_56): x[2] + x[56] >= 1
 _Edge_(6_56): x[6] + x[56] >= 1
 _Edge_(12_56): x[12] + x[56] >= 1
 _Edge_(14_56): x[14] + x[56] >= 1
 _Edge_(17_56): x[17] + x[56] >= 1
 _Edge_(18_56): x[18] + x[56] >= 1
 _Edge_(20_56): x[20] + x[56] >= 1
 _Edge_(21_56): x[21] + x[56] >= 1
 _Edge_(25_56): x[25] + x[56] >= 1
 _Edge_(33_56): x[33] + x[56] >= 1
 _Edge_(36_56): x[36] + x[56] >= 1
 _Edge_(38_56): x[38] + x[56] >= 1
 _Edge_(41_56): x[41] + x[56] >= 1
 _Edge_(42_56): x[42] + x[56] >= 1
 _Edge_(43_56): x[43] + x[56] >= 1
 _Edge_(44_56): x[44] + x[56] >= 1
 _Edge_(51_56): x[51] + x[56] >= 1
 _Edge_(52_56): x[52] + x[56] >= 1
 _Edge_(55_56): x[55] + x[56] >= 1
 _Edge_(0_57): x[0] + x[57] >= 1
 _Edge_(2_57): x[2] + x[57] >= 1
 _Edge_(4_57): x[4] + x[57] >= 1
 _Edge_(6_57): x[6] + x[57] >= 1
 _Edge_(14_57): x[14] + x[57] >= 1
 _Edge_(21_57): x[21] + x[57] >= 1
 _Edge_(22_57): x[22] + x[57] >= 1
 _Edge_(28_57): x[28] + x[57] >= 1
 _Edge_(31_57): x[31] + x[57] >= 1
 _Edge_(32_57): x[32] + x[57] >= 1
 _Edge_(34_57): x[34] + x[57] >= 1
 _Edge_(37_57): x[37] + x[57] >= 1
 _Edge_(38_57): x[38] + x[57] >= 1
 _Edge_(39_57): x[39] + x[57] >= 1
 _Edge_(52_57): x[52] + x[57] >= 1
 _Edge_(53_57): x[53] + x[57] >= 1
 _Edge_(54_57): x[54] + x[57] >= 1
 _Edge_(55_57): x[55] + x[57] >= 1
 _Edge_(56_57): x[56] + x[57] >= 1
 _Edge_(0_58): x[0] + x[58] >= 1
 _Edge_(3_58): x[3] + x[58] >= 1
 _Edge_(7_58): x[7] + x[58] >= 1
 _Edge_(8_58): x[8] + x[58] >= 1
 _Edge_(11_58): x[11] + x[58] >= 1
 _Edge_(17_58): x[17] + x[58] >= 1
 _Edge_(23_58): x[23] + x[58] >= 1
 _Edge_(25_58): x[25] + x[58] >= 1
 _Edge_(33_58): x[33] + x[58] >= 1
 _Edge_(37_58): x[37] + x[58] >= 1
 _Edge_(39_58): x[39] + x[58] >= 1
 _Edge_(41_58): x[41] + x[58] >= 1
 _Edge_(45_58): x[45] + x[58] >= 1
 _Edge_(52_58): x[52] + x[58] >= 1
 _Edge_(0_59): x[0] + x[59] >= 1
 _Edge_(3_59): x[3] + x[59] >= 1
 _Edge_(6_59): x[6] + x[59] >= 1
 _Edge_(17_59): x[17] + x[59] >= 1
 _Edge_(19_59): x[19] + x[59] >= 1
 _Edge_(21_59): x[21] + x[59] >= 1
 _Edge_(24_59): x[24] + x[59] >= 1
 _Edge_(26_59): x[26] + x[59] >= 1
 _Edge_(28_59): x[28] + x[59] >= 1
 _Edge_(29_59): x[29] + x[59] >= 1
 _Edge_(33_59): x[33] + x[59] >= 1
 _Edge_(38_59): x[38] + x[59] >= 1
 _Edge_(40_59): x[40] + x[59] >= 1
 _Edge_(43_59): x[43] + x[59] >= 1
 _Edge_(50_59): x[50] + x[59] >= 1
 _Edge_(56_59): x[56] + x[59] >= 1
Bounds
 x[0] <= 1
 x[1] <= 1
 x[2] <= 1
 x[3] <= 1
 x[4] <= 1
 x[5] <= 1
 x[6] <= 1
 x[7] <= 1
 x[8] <= 1
 x[9] <= 1
 x[10] <= 1
 x[11] <= 1
 x[12] <= 1
 x[13] <= 1
 x[14] <= 1
 x[15] <= 1
 x[16] <= 1
 x[17] <= 1
 x[18] <= 1
 x[19] <= 1
 x[20] <= 1
 x[21] <= 1
 x[22] <= 1
 x[23] <= 1
 x[24] <= 1
 x[25] <= 1
 x[26] <= 1
 x[27] <= 1
 x[28] <= 1
 x[29] <= 1
 x[30] <= 1
 x[31] <= 1
 x[32] <= 1
 x[33] <= 1
 x[34] <= 1
 x[35] <= 1
 x[36] <= 1
 x[37] <= 1
 x[38] <= 1
 x[39] <= 1
 x[40] <= 1
 x[41] <= 1
 x[42] <= 1
 x[43] <= 1
 x[44] <= 1
 x[45] <= 1
 x[46] <= 1
 x[47] <= 1
 x[48] <= 1
 x[49] <= 1
 x[50] <= 1
 x[51] <= 1
 x[52] <= 1
 x[53] <= 1
 x[54] <= 1
 x[55] <= 1
 x[56] <= 1
 x[57] <= 1
 x[58] <= 1
 x[59] <= 1
End
